/*********************************************
    * Lab01 - FCR
    * Author: Coso
    * Creation Date: Mar, 2019
    *********************************************/
instance_name = "medium_instance_10_FCR";

d = 5;
r = 15;

SCj = [352 323 323 316 336];
Dk = [77 67 96 14 21 77 88 76 77 55 55 15 59 91 31];

Cjk = [[62 45 86 69 73 65 78 37 67 58 72 34 36 45 79]
 [44 73 35 89 65 36 57 82 33 51 60 66 88 77 42]
 [54 35 30 41 88 64 61 50 89 42 40 50 72 83 49]
 [60 64 87 54 70 58 35 41 40 49 51 48 86 55 64]
 [41 60 74 54 57 63 41 60 47 60 69 72 50 72 71]];
Fjk = [[395 857 488 819 843 488 709 579 607 678 369 499 439 710 682]
 [573 774 404 524 578 375 346 538 307 843 413 779 746 363 770]
 [469 879 857 607 879 394 582 371 624 653 847 614 467 861 612]
 [380 396 332 679 738 446 540 462 593 791 449 422 356 854 363]
 [637 559 596 825 681 377 879 317 868 805 584 341 492 615 876]];
